p cnf 148 131
-1 22 122 -123 -124 -125 -127 -128 -129 -130 -131 -132 -133 -134 -135 -136 -141 -143 -144 -145 -148 0 
-2 3 5 21 43 63 79 82 91 97 98 105 115 123 -122 -124 -125 -127 -128 -129 -130 -131 -132 -133 -134 -135 -136 -141 -143 -144 -145 -148 0 
-3 2 5 21 43 63 79 82 91 97 98 105 115 124 -122 -123 -125 -127 -128 -129 -130 -131 -132 -133 -134 -135 -136 -141 -143 -144 -145 -148 0 
-4 125 -122 -123 -124 -127 -128 -129 -130 -131 -132 -133 -134 -135 -136 -141 -143 -144 -145 -148 0 
-5 2 3 21 43 63 79 82 91 97 98 105 115 126 -137 -138 -139 -142 -146 0 
-6 -7 127 -122 -123 -124 -125 -128 -129 -130 -131 -132 -133 -134 -135 -136 -141 -143 -144 -145 -148 0 
-8 128 -122 -123 -124 -125 -127 -129 -130 -131 -132 -133 -134 -135 -136 -141 -143 -144 -145 -148 0 
-9 31 51 111 129 -122 -123 -124 -125 -127 -128 -130 -131 -132 -133 -134 -135 -136 -141 -143 -144 -145 -148 0 
-10 -11 -12 34 54 -13 113 125 -122 -123 -124 -127 -128 -129 -130 -131 -132 -133 -134 -135 -136 -141 -143 -144 -145 -148 0 
-14 20 38 48 83 -15 16 27 130 -122 -123 -124 -125 -127 -128 -129 -131 -132 -133 -134 -135 -136 -141 -143 -144 -145 -148 0 
-16 15 27 131 -122 -123 -124 -125 -127 -128 -129 -130 -132 -133 -134 -135 -136 -141 -143 -144 -145 -148 0 
-17 45 61 87 104 131 -122 -123 -124 -125 -127 -128 -129 -130 -132 -133 -134 -135 -136 -141 -143 -144 -145 -148 0 
-18 67 125 -122 -123 -124 -127 -128 -129 -130 -131 -132 -133 -134 -135 -136 -141 -143 -144 -145 -148 0 
-19 125 -122 -123 -124 -127 -128 -129 -130 -131 -132 -133 -134 -135 -136 -141 -143 -144 -145 -148 0 
-20 14 38 48 83 132 -122 -123 -124 -125 -127 -128 -129 -130 -131 -133 -134 -135 -136 -141 -143 -144 -145 -148 0 
-21 2 3 5 43 63 79 82 91 97 98 105 115 133 -122 -123 -124 -125 -127 -128 -129 -130 -131 -132 -134 -135 -136 -141 -143 -144 -145 -148 0 
-22 1 134 -122 -123 -124 -125 -127 -128 -129 -130 -131 -132 -133 -135 -136 -141 -143 -144 -145 -148 0 
-23 125 -122 -123 -124 -127 -128 -129 -130 -131 -132 -133 -134 -135 -136 -141 -143 -144 -145 -148 0 
-24 132 -122 -123 -124 -125 -127 -128 -129 -130 -131 -133 -134 -135 -136 -141 -143 -144 -145 -148 0 
-25 -12 34 54 -26 73 125 -122 -123 -124 -127 -128 -129 -130 -131 -132 -133 -134 -135 -136 -141 -143 -144 -145 -148 0 
-19 -27 15 16 -12 34 54 125 -122 -123 -124 -127 -128 -129 -130 -131 -132 -133 -134 -135 -136 -141 -143 -144 -145 -148 0 
-19 -28 -12 34 54 125 -122 -123 -124 -127 -128 -129 -130 -131 -132 -133 -134 -135 -136 -141 -143 -144 -145 -148 0 
-29 -30 32 125 -122 -123 -124 -127 -128 -129 -130 -131 -132 -133 -134 -135 -136 -141 -143 -144 -145 -148 0 
-31 9 51 111 125 -122 -123 -124 -127 -128 -129 -130 -131 -132 -133 -134 -135 -136 -141 -143 -144 -145 -148 0 
-19 -32 30 -12 34 54 125 -122 -123 -124 -127 -128 -129 -130 -131 -132 -133 -134 -135 -136 -141 -143 -144 -145 -148 0 
-19 -12 34 54 125 -122 -123 -124 -127 -128 -129 -130 -131 -132 -133 -134 -135 -136 -141 -143 -144 -145 -148 0 
-33 -34 12 54 -35 135 -122 -123 -124 -125 -127 -128 -129 -130 -131 -132 -133 -134 -136 -141 -143 -144 -145 -148 0 
-5 2 3 21 43 63 79 82 91 97 98 105 115 -12 34 54 125 -122 -123 -124 -127 -128 -129 -130 -131 -132 -133 -134 -135 -136 -141 -143 -144 -145 -148 0 
-36 60 69 85 102 120 136 -122 -123 -124 -125 -127 -128 -129 -130 -131 -132 -133 -134 -135 -141 -143 -144 -145 -148 0 
-5 2 3 21 43 63 79 82 91 97 98 105 115 137 -126 -138 -139 -142 -146 0 
-37 88 138 -126 -137 -139 -142 -146 0 
-18 67 -38 14 20 48 83 -39 139 -126 -137 -138 -142 -146 0 
-40 -27 15 16 125 -122 -123 -124 -127 -128 -129 -130 -131 -132 -133 -134 -135 -136 -141 -143 -144 -145 -148 0 
-41 125 -122 -123 -124 -127 -128 -129 -130 -131 -132 -133 -134 -135 -136 -141 -143 -144 -145 -148 0 
-42 50 86 95 119 135 -122 -123 -124 -125 -127 -128 -129 -130 -131 -132 -133 -134 -136 -141 -143 -144 -145 -148 0 
-43 2 3 5 21 63 79 82 91 97 98 105 115 135 -122 -123 -124 -125 -127 -128 -129 -130 -131 -132 -133 -134 -136 -141 -143 -144 -145 -148 0 
-44 135 -122 -123 -124 -125 -127 -128 -129 -130 -131 -132 -133 -134 -136 -141 -143 -144 -145 -148 0 
-45 17 61 87 104 135 -122 -123 -124 -125 -127 -128 -129 -130 -131 -132 -133 -134 -136 -141 -143 -144 -145 -148 0 
-46 -47 131 -122 -123 -124 -125 -127 -128 -129 -130 -132 -133 -134 -135 -136 -141 -143 -144 -145 -148 0 
-48 14 20 38 83 -12 34 54 125 -122 -123 -124 -127 -128 -129 -130 -131 -132 -133 -134 -135 -136 -141 -143 -144 -145 -148 0 
-19 -30 32 -12 34 54 125 -122 -123 -124 -127 -128 -129 -130 -131 -132 -133 -134 -135 -136 -141 -143 -144 -145 -148 0 
-49 -5 2 3 21 43 63 79 82 91 97 98 105 115 -12 34 54 125 -122 -123 -124 -127 -128 -129 -130 -131 -132 -133 -134 -135 -136 -141 -143 -144 -145 -148 0 
-50 42 86 95 119 140 -122 -123 -124 -125 -127 -128 -129 -130 -131 -132 -133 -134 -135 -136 -141 -143 -144 -145 -148 0 
-51 9 31 111 125 -122 -123 -124 -127 -128 -129 -130 -131 -132 -133 -134 -135 -136 -141 -143 -144 -145 -148 0 
-12 34 54 125 -122 -123 -124 -127 -128 -129 -130 -131 -132 -133 -134 -135 -136 -141 -143 -144 -145 -148 0 
-12 34 54 -10 125 -122 -123 -124 -127 -128 -129 -130 -131 -132 -133 -134 -135 -136 -141 -143 -144 -145 -148 0 
-19 -34 12 54 -35 125 -122 -123 -124 -127 -128 -129 -130 -131 -132 -133 -134 -135 -136 -141 -143 -144 -145 -148 0 
-11 125 -122 -123 -124 -127 -128 -129 -130 -131 -132 -133 -134 -135 -136 -141 -143 -144 -145 -148 0 
-18 67 -12 34 54 125 -122 -123 -124 -127 -128 -129 -130 -131 -132 -133 -134 -135 -136 -141 -143 -144 -145 -148 0 
-52 125 -122 -123 -124 -127 -128 -129 -130 -131 -132 -133 -134 -135 -136 -141 -143 -144 -145 -148 0 
-53 -54 12 34 125 -122 -123 -124 -127 -128 -129 -130 -131 -132 -133 -134 -135 -136 -141 -143 -144 -145 -148 0 
-55 66 90 -19 -12 34 54 125 -122 -123 -124 -127 -128 -129 -130 -131 -132 -133 -134 -135 -136 -141 -143 -144 -145 -148 0 
-12 34 54 -11 141 -122 -123 -124 -125 -127 -128 -129 -130 -131 -132 -133 -134 -135 -136 -143 -144 -145 -148 0 
-56 -12 34 54 125 -122 -123 -124 -127 -128 -129 -130 -131 -132 -133 -134 -135 -136 -141 -143 -144 -145 -148 0 
-57 -51 9 31 111 142 -126 -137 -138 -139 -146 0 
-58 -12 34 54 125 -122 -123 -124 -127 -128 -129 -130 -131 -132 -133 -134 -135 -136 -141 -143 -144 -145 -148 0 
-59 125 -122 -123 -124 -127 -128 -129 -130 -131 -132 -133 -134 -135 -136 -141 -143 -144 -145 -148 0 
-60 36 69 85 102 120 135 -122 -123 -124 -125 -127 -128 -129 -130 -131 -132 -133 -134 -136 -141 -143 -144 -145 -148 0 
-61 17 45 87 104 125 -122 -123 -124 -127 -128 -129 -130 -131 -132 -133 -134 -135 -136 -141 -143 -144 -145 -148 0 
-62 106 125 -122 -123 -124 -127 -128 -129 -130 -131 -132 -133 -134 -135 -136 -141 -143 -144 -145 -148 0 
-63 2 3 5 21 43 79 82 91 97 98 105 115 125 -122 -123 -124 -127 -128 -129 -130 -131 -132 -133 -134 -135 -136 -141 -143 -144 -145 -148 0 
-34 12 54 125 -122 -123 -124 -127 -128 -129 -130 -131 -132 -133 -134 -135 -136 -141 -143 -144 -145 -148 0 
-12 34 54 143 -122 -123 -124 -125 -127 -128 -129 -130 -131 -132 -133 -134 -135 -136 -141 -144 -145 -148 0 
-39 125 -122 -123 -124 -127 -128 -129 -130 -131 -132 -133 -134 -135 -136 -141 -143 -144 -145 -148 0 
-64 71 80 92 125 -122 -123 -124 -127 -128 -129 -130 -131 -132 -133 -134 -135 -136 -141 -143 -144 -145 -148 0 
-15 16 27 130 -122 -123 -124 -125 -127 -128 -129 -131 -132 -133 -134 -135 -136 -141 -143 -144 -145 -148 0 
-48 14 20 38 83 -65 125 -122 -123 -124 -127 -128 -129 -130 -131 -132 -133 -134 -135 -136 -141 -143 -144 -145 -148 0 
-66 55 90 130 -122 -123 -124 -125 -127 -128 -129 -131 -132 -133 -134 -135 -136 -141 -143 -144 -145 -148 0 
-67 18 130 -122 -123 -124 -125 -127 -128 -129 -131 -132 -133 -134 -135 -136 -141 -143 -144 -145 -148 0 
-27 15 16 -68 112 -10 125 -122 -123 -124 -127 -128 -129 -130 -131 -132 -133 -134 -135 -136 -141 -143 -144 -145 -148 0 
-69 36 60 85 102 120 -70 -12 34 54 125 -122 -123 -124 -127 -128 -129 -130 -131 -132 -133 -134 -135 -136 -141 -143 -144 -145 -148 0 
-12 34 54 133 -122 -123 -124 -125 -127 -128 -129 -130 -131 -132 -134 -135 -136 -141 -143 -144 -145 -148 0 
-39 -12 34 54 125 -122 -123 -124 -127 -128 -129 -130 -131 -132 -133 -134 -135 -136 -141 -143 -144 -145 -148 0 
-71 64 80 92 -12 34 54 143 -122 -123 -124 -125 -127 -128 -129 -130 -131 -132 -133 -134 -135 -136 -141 -144 -145 -148 0 
-72 -12 34 54 122 -123 -124 -125 -127 -128 -129 -130 -131 -132 -133 -134 -135 -136 -141 -143 -144 -145 -148 0 
-12 34 54 144 -122 -123 -124 -125 -127 -128 -129 -130 -131 -132 -133 -134 -135 -136 -141 -143 -145 -148 0 
-27 15 16 -12 34 54 -73 26 125 -122 -123 -124 -127 -128 -129 -130 -131 -132 -133 -134 -135 -136 -141 -143 -144 -145 -148 0 
-74 -27 15 16 -75 125 -122 -123 -124 -127 -128 -129 -130 -131 -132 -133 -134 -135 -136 -141 -143 -144 -145 -148 0 
-63 2 3 5 21 43 79 82 91 97 98 105 115 -52 125 -122 -123 -124 -127 -128 -129 -130 -131 -132 -133 -134 -135 -136 -141 -143 -144 -145 -148 0 
-27 15 16 125 -122 -123 -124 -127 -128 -129 -130 -131 -132 -133 -134 -135 -136 -141 -143 -144 -145 -148 0 
-76 -12 34 54 125 -122 -123 -124 -127 -128 -129 -130 -131 -132 -133 -134 -135 -136 -141 -143 -144 -145 -148 0 
-77 130 -122 -123 -124 -125 -127 -128 -129 -131 -132 -133 -134 -135 -136 -141 -143 -144 -145 -148 0 
-78 -10 125 -122 -123 -124 -127 -128 -129 -130 -131 -132 -133 -134 -135 -136 -141 -143 -144 -145 -148 0 
-79 2 3 5 21 43 63 82 91 97 98 105 115 125 -122 -123 -124 -127 -128 -129 -130 -131 -132 -133 -134 -135 -136 -141 -143 -144 -145 -148 0 
-80 64 71 92 125 -122 -123 -124 -127 -128 -129 -130 -131 -132 -133 -134 -135 -136 -141 -143 -144 -145 -148 0 
-81 -10 125 -122 -123 -124 -127 -128 -129 -130 -131 -132 -133 -134 -135 -136 -141 -143 -144 -145 -148 0 
-82 2 3 5 21 43 63 79 91 97 98 105 115 130 -122 -123 -124 -125 -127 -128 -129 -131 -132 -133 -134 -135 -136 -141 -143 -144 -145 -148 0 
-83 14 20 38 48 125 -122 -123 -124 -127 -128 -129 -130 -131 -132 -133 -134 -135 -136 -141 -143 -144 -145 -148 0 
-84 116 125 -122 -123 -124 -127 -128 -129 -130 -131 -132 -133 -134 -135 -136 -141 -143 -144 -145 -148 0 
-85 36 60 69 102 120 -12 34 54 122 -123 -124 -125 -127 -128 -129 -130 -131 -132 -133 -134 -135 -136 -141 -143 -144 -145 -148 0 
-86 42 50 95 119 -12 34 54 122 -123 -124 -125 -127 -128 -129 -130 -131 -132 -133 -134 -135 -136 -141 -143 -144 -145 -148 0 
-87 17 45 61 104 -88 37 -12 34 54 124 -122 -123 -125 -127 -128 -129 -130 -131 -132 -133 -134 -135 -136 -141 -143 -144 -145 -148 0 
-89 125 -122 -123 -124 -127 -128 -129 -130 -131 -132 -133 -134 -135 -136 -141 -143 -144 -145 -148 0 
-19 -9 31 51 111 125 -122 -123 -124 -127 -128 -129 -130 -131 -132 -133 -134 -135 -136 -141 -143 -144 -145 -148 0 
-53 145 -122 -123 -124 -125 -127 -128 -129 -130 -131 -132 -133 -134 -135 -136 -141 -143 -144 -148 0 
-90 55 66 125 -122 -123 -124 -127 -128 -129 -130 -131 -132 -133 -134 -135 -136 -141 -143 -144 -145 -148 0 
-91 2 3 5 21 43 63 79 82 97 98 105 115 125 -122 -123 -124 -127 -128 -129 -130 -131 -132 -133 -134 -135 -136 -141 -143 -144 -145 -148 0 
-92 64 71 80 -27 15 16 125 -122 -123 -124 -127 -128 -129 -130 -131 -132 -133 -134 -135 -136 -141 -143 -144 -145 -148 0 
-93 146 -126 -137 -138 -139 -142 0 
-94 147 -122 -123 -124 -125 -127 -128 -129 -130 -131 -132 -133 -134 -135 -136 -141 -143 -144 -145 -148 0 
-95 42 50 86 119 147 -122 -123 -124 -125 -127 -128 -129 -130 -131 -132 -133 -134 -135 -136 -141 -143 -144 -145 -148 0 
-96 -97 2 3 5 21 43 63 79 82 91 98 105 115 125 -122 -123 -124 -127 -128 -129 -130 -131 -132 -133 -134 -135 -136 -141 -143 -144 -145 -148 0 
-98 2 3 5 21 43 63 79 82 91 97 105 115 148 -122 -123 -124 -125 -127 -128 -129 -130 -131 -132 -133 -134 -135 -136 -141 -143 -144 -145 0 
-99 100 148 -122 -123 -124 -125 -127 -128 -129 -130 -131 -132 -133 -134 -135 -136 -141 -143 -144 -145 0 
-100 99 148 -122 -123 -124 -125 -127 -128 -129 -130 -131 -132 -133 -134 -135 -136 -141 -143 -144 -145 0 
-101 140 -122 -123 -124 -125 -127 -128 -129 -130 -131 -132 -133 -134 -135 -136 -141 -143 -144 -145 -148 0 
-102 36 60 69 85 120 -103 125 -122 -123 -124 -127 -128 -129 -130 -131 -132 -133 -134 -135 -136 -141 -143 -144 -145 -148 0 
-104 17 45 61 87 -105 2 3 5 21 43 63 79 82 91 97 98 115 131 -122 -123 -124 -125 -127 -128 -129 -130 -132 -133 -134 -135 -136 -141 -143 -144 -145 -148 0 
-106 62 -107 131 -122 -123 -124 -125 -127 -128 -129 -130 -132 -133 -134 -135 -136 -141 -143 -144 -145 -148 0 
-105 2 3 5 21 43 63 79 82 91 97 98 115 -10 131 -122 -123 -124 -125 -127 -128 -129 -130 -132 -133 -134 -135 -136 -141 -143 -144 -145 -148 0 
-107 -10 131 -122 -123 -124 -125 -127 -128 -129 -130 -132 -133 -134 -135 -136 -141 -143 -144 -145 -148 0 
-10 131 -122 -123 -124 -125 -127 -128 -129 -130 -132 -133 -134 -135 -136 -141 -143 -144 -145 -148 0 
-34 12 54 -108 125 -122 -123 -124 -127 -128 -129 -130 -131 -132 -133 -134 -135 -136 -141 -143 -144 -145 -148 0 
-109 135 -122 -123 -124 -125 -127 -128 -129 -130 -131 -132 -133 -134 -136 -141 -143 -144 -145 -148 0 
-110 -12 34 54 -73 26 125 -122 -123 -124 -127 -128 -129 -130 -131 -132 -133 -134 -135 -136 -141 -143 -144 -145 -148 0 
-33 -34 12 54 -11 135 -122 -123 -124 -125 -127 -128 -129 -130 -131 -132 -133 -134 -136 -141 -143 -144 -145 -148 0 
-19 -34 12 54 125 -122 -123 -124 -127 -128 -129 -130 -131 -132 -133 -134 -135 -136 -141 -143 -144 -145 -148 0 
-27 15 16 -12 34 54 125 -122 -123 -124 -127 -128 -129 -130 -131 -132 -133 -134 -135 -136 -141 -143 -144 -145 -148 0 
-68 112 -111 9 31 51 125 -122 -123 -124 -127 -128 -129 -130 -131 -132 -133 -134 -135 -136 -141 -143 -144 -145 -148 0 
-112 68 -12 34 54 -113 13 125 -122 -123 -124 -127 -128 -129 -130 -131 -132 -133 -134 -135 -136 -141 -143 -144 -145 -148 0 
-114 128 -122 -123 -124 -125 -127 -129 -130 -131 -132 -133 -134 -135 -136 -141 -143 -144 -145 -148 0 
-66 55 90 -15 16 27 130 -122 -123 -124 -125 -127 -128 -129 -131 -132 -133 -134 -135 -136 -141 -143 -144 -145 -148 0 
-115 2 3 5 21 43 63 79 82 91 97 98 105 128 -122 -123 -124 -125 -127 -129 -130 -131 -132 -133 -134 -135 -136 -141 -143 -144 -145 -148 0 
-116 84 -117 -54 12 34 131 -122 -123 -124 -125 -127 -128 -129 -130 -132 -133 -134 -135 -136 -141 -143 -144 -145 -148 0 
-25 125 -122 -123 -124 -127 -128 -129 -130 -131 -132 -133 -134 -135 -136 -141 -143 -144 -145 -148 0 
-118 125 -122 -123 -124 -127 -128 -129 -130 -131 -132 -133 -134 -135 -136 -141 -143 -144 -145 -148 0 
-14 20 38 48 83 130 -122 -123 -124 -125 -127 -128 -129 -131 -132 -133 -134 -135 -136 -141 -143 -144 -145 -148 0 
-119 42 50 86 95 130 -122 -123 -124 -125 -127 -128 -129 -131 -132 -133 -134 -135 -136 -141 -143 -144 -145 -148 0 
-120 36 60 69 85 102 -54 12 34 132 -122 -123 -124 -125 -127 -128 -129 -130 -131 -133 -134 -135 -136 -141 -143 -144 -145 -148 0 
-121 125 -122 -123 -124 -127 -128 -129 -130 -131 -132 -133 -134 -135 -136 -141 -143 -144 -145 -148 0 
-12 34 54 -35 141 -122 -123 -124 -125 -127 -128 -129 -130 -131 -132 -133 -134 -135 -136 -143 -144 -145 -148 0 
